(set-info :smt-lib-version 2.6)
(set-info :category "crafted")
(set-logic QF_FFA)
(define-sort FF0 () (_ FiniteField 52435875175126190479447740508185965837690552500527637822603658699938581184513))
(declare-fun mul_n38_alt () FF0)
(declare-fun is_zero_n41_alt () FF0)
(declare-fun is_zero_n44_alt () FF0)
(declare-fun mul_n28_alt () FF0)
(declare-fun mul_n37_alt () FF0)
(declare-fun mul_n11_alt () FF0)
(declare-fun mul_n20_alt () FF0)
(declare-fun mul_n39_alt () FF0)
(declare-fun return_n6_alt () FF0)
(declare-fun is_zero_inv_n45_alt () FF0)
(declare-fun mul_n35_alt () FF0)
(declare-fun is_zero_n22_alt () FF0)
(declare-fun is_zero_n25_alt () FF0)
(declare-fun is_zero_n31_alt () FF0)
(declare-fun e_n2_alt () FF0)
(declare-fun is_zero_n27_alt () FF0)
(declare-fun f_n1_alt () FF0)
(declare-fun mul_n23_alt () FF0)
(declare-fun mul_n42_alt () FF0)
(declare-fun mul_n29_alt () FF0)
(declare-fun is_zero_inv_n43_alt () FF0)
(declare-fun is_zero_n18_alt () FF0)
(declare-fun mul_n36_alt () FF0)
(declare-fun is_zero_inv_n40_alt () FF0)
(declare-fun is_zero_n34_alt () FF0)
(declare-fun mul_n9_alt () FF0)
(declare-fun mul_n16_alt () FF0)
(declare-fun mul_n32_alt () FF0)
(declare-fun c_n4_alt () FF0)
(declare-fun is_zero_inv_n33_alt () FF0)
(declare-fun mul_n14_alt () FF0)
(declare-fun h_n5_alt () FF0)
(declare-fun is_zero_n13_alt () FF0)
(declare-fun is_zero_inv_n30_alt () FF0)
(declare-fun a_n0_alt () FF0)
(declare-fun mul_n15_alt () FF0)
(declare-fun is_zero_inv_n26_alt () FF0)
(declare-fun b_n8_alt () FF0)
(declare-fun is_zero_inv_n24_alt () FF0)
(declare-fun g_n7_alt () FF0)
(declare-fun is_zero_inv_n21_alt () FF0)
(declare-fun mul_n19_alt () FF0)
(declare-fun d_n3_alt () FF0)
(declare-fun is_zero_inv_n17_alt () FF0)
(declare-fun is_zero_inv_n12_alt () FF0)
(declare-fun mul_n10_alt () FF0)
(declare-fun mul_n38 () FF0)
(declare-fun is_zero_n41 () FF0)
(declare-fun is_zero_n44 () FF0)
(declare-fun mul_n28 () FF0)
(declare-fun mul_n37 () FF0)
(declare-fun mul_n11 () FF0)
(declare-fun mul_n20 () FF0)
(declare-fun mul_n39 () FF0)
(declare-fun return_n6 () FF0)
(declare-fun is_zero_inv_n45 () FF0)
(declare-fun mul_n35 () FF0)
(declare-fun is_zero_n22 () FF0)
(declare-fun is_zero_n25 () FF0)
(declare-fun is_zero_n31 () FF0)
(declare-fun e_n2 () FF0)
(declare-fun is_zero_n27 () FF0)
(declare-fun f_n1 () FF0)
(declare-fun mul_n23 () FF0)
(declare-fun mul_n42 () FF0)
(declare-fun mul_n29 () FF0)
(declare-fun is_zero_inv_n43 () FF0)
(declare-fun is_zero_n18 () FF0)
(declare-fun mul_n36 () FF0)
(declare-fun is_zero_inv_n40 () FF0)
(declare-fun is_zero_n34 () FF0)
(declare-fun mul_n9 () FF0)
(declare-fun mul_n16 () FF0)
(declare-fun mul_n32 () FF0)
(declare-fun c_n4 () FF0)
(declare-fun is_zero_inv_n33 () FF0)
(declare-fun mul_n14 () FF0)
(declare-fun h_n5 () FF0)
(declare-fun is_zero_n13 () FF0)
(declare-fun is_zero_inv_n30 () FF0)
(declare-fun a_n0 () FF0)
(declare-fun mul_n15 () FF0)
(declare-fun is_zero_inv_n26 () FF0)
(declare-fun b_n8 () FF0)
(declare-fun is_zero_inv_n24 () FF0)
(declare-fun g_n7 () FF0)
(declare-fun is_zero_inv_n21 () FF0)
(declare-fun mul_n19 () FF0)
(declare-fun d_n3 () FF0)
(declare-fun is_zero_inv_n17 () FF0)
(declare-fun is_zero_inv_n12 () FF0)
(declare-fun mul_n10 () FF0)
(assert 
  (let ((let0 (as ff0 FF0)))
  (let ((let1 (as ff4 FF0)))
  (let ((let2 (as ff52435875175126190479447740508185965837690552500527637822603658699938581184512 FF0)))
  (let ((let3 mul_n38_alt))
  (let ((let4 (ff.mul let3 let2)))
  (let ((let5 is_zero_n41_alt))
  (let ((let6 (ff.mul let5 let2)))
  (let ((let7 is_zero_n44_alt))
  (let ((let8 mul_n28_alt))
  (let ((let9 (ff.mul let8 let2)))
  (let ((let10 mul_n37_alt))
  (let ((let11 mul_n11_alt))
  (let ((let12 (ff.mul let11 let2)))
  (let ((let13 mul_n20_alt))
  (let ((let14 mul_n39_alt))
  (let ((let15 (ff.add let14 let13 let12 let10 let9 let7 let6 let4 let1)))
  (let ((let16 (as ff1 FF0)))
  (let ((let17 return_n6_alt))
  (let ((let18 (ff.mul let17 let2)))
  (let ((let19 (ff.add let18 let16)))
  (let ((let20 (ff.mul let19 let15)))
  (let ((let21 (= let20 let0)))
  (let ((let22 is_zero_inv_n45_alt))
  (let ((let23 (ff.mul let22 let15)))
  (let ((let24 (= let23 let17)))
  (let ((let25 (as ff5 FF0)))
  (let ((let26 mul_n35_alt))
  (let ((let27 (ff.mul let26 let2)))
  (let ((let28 is_zero_n22_alt))
  (let ((let29 (ff.mul let28 let2)))
  (let ((let30 is_zero_n25_alt))
  (let ((let31 is_zero_n31_alt))
  (let ((let32 (ff.mul let31 let2)))
  (let ((let33 (as ff52435875175126190479447740508185965837690552500527637822603658699938581184511 FF0)))
  (let ((let34 e_n2_alt))
  (let ((let35 (ff.mul let34 let33)))
  (let ((let36 is_zero_n27_alt))
  (let ((let37 (ff.mul let36 let2)))
  (let ((let38 f_n1_alt))
  (let ((let39 mul_n23_alt))
  (let ((let40 (ff.mul let39 let2)))
  (let ((let41 mul_n42_alt))
  (let ((let42 mul_n29_alt))
  (let ((let43 (ff.mul let42 let2)))
  (let ((let44 (ff.add let43 let41 let40 let38 let37 let35 let32 let30 let29 let27 let25)))
  (let ((let45 (ff.mul let7 let44)))
  (let ((let46 (= let45 let0)))
  (let ((let47 (ff.mul let7 let2)))
  (let ((let48 (ff.add let47 let16)))
  (let ((let49 is_zero_inv_n43_alt))
  (let ((let50 (ff.mul let49 let44)))
  (let ((let51 (= let50 let48)))
  (let ((let52 is_zero_n18_alt))
  (let ((let53 (ff.mul let52 let2)))
  (let ((let54 (ff.add let53 let16)))
  (let ((let55 (ff.mul let13 let54)))
  (let ((let56 (= let55 let41)))
  (let ((let57 (as ff2 FF0)))
  (let ((let58 mul_n36_alt))
  (let ((let59 (ff.mul let58 let2)))
  (let ((let60 (ff.add let36 let42 let34 let59 let30 let29 let26 let57)))
  (let ((let61 (ff.mul let5 let60)))
  (let ((let62 (= let61 let0)))
  (let ((let63 (ff.add let6 let16)))
  (let ((let64 is_zero_inv_n40_alt))
  (let ((let65 (ff.mul let64 let60)))
  (let ((let66 (= let65 let63)))
  (let ((let67 (ff.mul let13 let2)))
  (let ((let68 (ff.add let67 let32 let16)))
  (let ((let69 is_zero_n34_alt))
  (let ((let70 (ff.mul let69 let68)))
  (let ((let71 (= let70 let14)))
  (let ((let72 (ff.add let38 let29 let40 let16)))
  (let ((let73 mul_n9_alt))
  (let ((let74 (ff.mul let73 let72)))
  (let ((let75 (= let74 let3)))
  (let ((let76 (ff.add let8 let69 let2)))
  (let ((let77 (ff.add let59 let16)))
  (let ((let78 (ff.mul let77 let76)))
  (let ((let79 (= let78 let10)))
  (let ((let80 (ff.mul let34 let2)))
  (let ((let81 (ff.add let27 let43 let80 let37 let57)))
  (let ((let82 mul_n16_alt))
  (let ((let83 (ff.mul let82 let81)))
  (let ((let84 (= let83 let58)))
  (let ((let85 mul_n32_alt))
  (let ((let86 (ff.add let85 let43 let80 let31 let73 let37)))
  (let ((let87 (ff.mul let69 let86)))
  (let ((let88 (= let87 let26)))
  (let ((let89 (as ff7 FF0)))
  (let ((let90 (ff.mul let73 let2)))
  (let ((let91 (ff.mul let30 let57)))
  (let ((let92 (ff.mul let36 let33)))
  (let ((let93 c_n4_alt))
  (let ((let94 (ff.mul let93 let2)))
  (let ((let95 (ff.mul let85 let2)))
  (let ((let96 (ff.add let95 let43 let40 let94 let38 let92 let80 let32 let8 let91 let29 let90 let89)))
  (let ((let97 (ff.mul let69 let96)))
  (let ((let98 (= let97 let0)))
  (let ((let99 (ff.mul let69 let2)))
  (let ((let100 (ff.add let99 let16)))
  (let ((let101 is_zero_inv_n33_alt))
  (let ((let102 (ff.mul let101 let96)))
  (let ((let103 (= let102 let100)))
  (let ((let104 (ff.add let90 let16)))
  (let ((let105 (ff.mul let31 let33)))
  (let ((let106 (ff.add let105 let57)))
  (let ((let107 (ff.mul let106 let104)))
  (let ((let108 (= let107 let85)))
  (let ((let109 mul_n14_alt))
  (let ((let110 (ff.mul let109 let2)))
  (let ((let111 h_n5_alt))
  (let ((let112 is_zero_n13_alt))
  (let ((let113 (ff.mul let112 let2)))
  (let ((let114 (ff.add let42 let34 let113 let93 let111 let110 let36 let16)))
  (let ((let115 (ff.mul let31 let114)))
  (let ((let116 (= let115 let0)))
  (let ((let117 (ff.add let32 let16)))
  (let ((let118 is_zero_inv_n30_alt))
  (let ((let119 (ff.mul let118 let114)))
  (let ((let120 (= let119 let117)))
  (let ((let121 (ff.add let80 let16)))
  (let ((let122 (ff.add let92 let57)))
  (let ((let123 (ff.mul let122 let121)))
  (let ((let124 (= let123 let42)))
  (let ((let125 (ff.add let37 let16)))
  (let ((let126 a_n0_alt))
  (let ((let127 (ff.mul let126 let2)))
  (let ((let128 (ff.add let127 let16)))
  (let ((let129 (ff.mul let128 let125)))
  (let ((let130 (= let129 let8)))
  (let ((let131 (as ff3 FF0)))
  (let ((let132 mul_n15_alt))
  (let ((let133 (ff.mul let132 let2)))
  (let ((let134 (ff.add let113 let34 let133 let91 let110 let38 let131)))
  (let ((let135 (ff.mul let36 let134)))
  (let ((let136 (= let135 let0)))
  (let ((let137 is_zero_inv_n26_alt))
  (let ((let138 (ff.mul let137 let134)))
  (let ((let139 (= let138 let125)))
  (let ((let140 (as ff6 FF0)))
  (let ((let141 b_n8_alt))
  (let ((let142 (ff.mul let141 let33)))
  (let ((let143 (ff.mul let82 let57)))
  (let ((let144 (ff.add let127 let143 let40 let67 let38 let142 let73 let28 let140)))
  (let ((let145 (ff.mul let30 let144)))
  (let ((let146 (= let145 let0)))
  (let ((let147 (ff.mul let30 let2)))
  (let ((let148 (ff.add let147 let16)))
  (let ((let149 is_zero_inv_n24_alt))
  (let ((let150 (ff.mul let149 let144)))
  (let ((let151 (= let150 let148)))
  (let ((let152 (ff.mul let28 let33)))
  (let ((let153 (ff.add let152 let57)))
  (let ((let154 (ff.mul let153 let38)))
  (let ((let155 (= let154 let39)))
  (let ((let156 g_n7_alt))
  (let ((let157 (ff.add let52 let156 let93 let13)))
  (let ((let158 (ff.mul let28 let157)))
  (let ((let159 (= let158 let0)))
  (let ((let160 (ff.add let29 let16)))
  (let ((let161 is_zero_inv_n21_alt))
  (let ((let162 (ff.mul let161 let157)))
  (let ((let163 (= let162 let160)))
  (let ((let164 mul_n19_alt))
  (let ((let165 (ff.mul let164 let52)))
  (let ((let166 (= let165 let13)))
  (let ((let167 (ff.add let133 let16)))
  (let ((let168 (ff.mul let73 let167)))
  (let ((let169 (= let168 let164)))
  (let ((let170 (as ff8 FF0)))
  (let ((let171 d_n3_alt))
  (let ((let172 (ff.mul let171 let2)))
  (let ((let173 (ff.mul let34 let57)))
  (let ((let174 (ff.mul let111 let2)))
  (let ((let175 (ff.mul let141 let2)))
  (let ((let176 (ff.mul let38 let33)))
  (let ((let177 (ff.mul let156 let2)))
  (let ((let178 (ff.add let127 let112 let177 let94 let176 let109 let175 let174 let173 let172 let170)))
  (let ((let179 (ff.mul let52 let178)))
  (let ((let180 (= let179 let0)))
  (let ((let181 is_zero_inv_n17_alt))
  (let ((let182 (ff.mul let181 let178)))
  (let ((let183 (= let182 let54)))
  (let ((let184 (ff.add let174 let16)))
  (let ((let185 (ff.mul let167 let184)))
  (let ((let186 (= let185 let82)))
  (let ((let187 (ff.add let113 let16)))
  (let ((let188 (ff.mul let187 let109)))
  (let ((let189 (= let188 let132)))
  (let ((let190 (ff.add let172 let16)))
  (let ((let191 (ff.mul let156 let190)))
  (let ((let192 (= let191 let109)))
  (let ((let193 (ff.add let141 let126 let34 let93)))
  (let ((let194 (ff.mul let112 let193)))
  (let ((let195 (= let194 let0)))
  (let ((let196 is_zero_inv_n12_alt))
  (let ((let197 (ff.mul let196 let193)))
  (let ((let198 (= let197 let187)))
  (let ((let199 mul_n10_alt))
  (let ((let200 (ff.add let73 let199 let172)))
  (let ((let201 (ff.mul let200 let34)))
  (let ((let202 (= let201 let11)))
  (let ((let203 (ff.mul let171 let57)))
  (let ((let204 (ff.mul let203 let104)))
  (let ((let205 (= let204 let199)))
  (let ((let206 (ff.mul let171 let111)))
  (let ((let207 (= let206 let73)))
  (let ((let208 (and let207 let205 let202 let198 let195 let192 let189 let186 let183 let180 let169 let166 let163 let159 let155 let151 let146 let139 let136 let130 let124 let120 let116 let108 let103 let98 let88 let84 let79 let75 let71 let66 let62 let56 let51 let46 let24 let21)))
  (let ((let209 mul_n38))
  (let ((let210 (ff.mul let209 let2)))
  (let ((let211 is_zero_n41))
  (let ((let212 (ff.mul let211 let2)))
  (let ((let213 is_zero_n44))
  (let ((let214 mul_n28))
  (let ((let215 (ff.mul let214 let2)))
  (let ((let216 mul_n37))
  (let ((let217 mul_n11))
  (let ((let218 (ff.mul let217 let2)))
  (let ((let219 mul_n20))
  (let ((let220 mul_n39))
  (let ((let221 (ff.add let220 let219 let218 let216 let215 let213 let212 let210 let1)))
  (let ((let222 return_n6))
  (let ((let223 (ff.mul let222 let2)))
  (let ((let224 (ff.add let223 let16)))
  (let ((let225 (ff.mul let224 let221)))
  (let ((let226 (= let225 let0)))
  (let ((let227 is_zero_inv_n45))
  (let ((let228 (ff.mul let227 let221)))
  (let ((let229 (= let228 let222)))
  (let ((let230 mul_n35))
  (let ((let231 (ff.mul let230 let2)))
  (let ((let232 is_zero_n22))
  (let ((let233 (ff.mul let232 let2)))
  (let ((let234 is_zero_n25))
  (let ((let235 is_zero_n31))
  (let ((let236 (ff.mul let235 let2)))
  (let ((let237 e_n2))
  (let ((let238 (ff.mul let237 let33)))
  (let ((let239 is_zero_n27))
  (let ((let240 (ff.mul let239 let2)))
  (let ((let241 f_n1))
  (let ((let242 mul_n23))
  (let ((let243 (ff.mul let242 let2)))
  (let ((let244 mul_n42))
  (let ((let245 mul_n29))
  (let ((let246 (ff.mul let245 let2)))
  (let ((let247 (ff.add let246 let244 let243 let241 let240 let238 let236 let234 let233 let231 let25)))
  (let ((let248 (ff.mul let213 let247)))
  (let ((let249 (= let248 let0)))
  (let ((let250 (ff.mul let213 let2)))
  (let ((let251 (ff.add let250 let16)))
  (let ((let252 is_zero_inv_n43))
  (let ((let253 (ff.mul let252 let247)))
  (let ((let254 (= let253 let251)))
  (let ((let255 is_zero_n18))
  (let ((let256 (ff.mul let255 let2)))
  (let ((let257 (ff.add let256 let16)))
  (let ((let258 (ff.mul let219 let257)))
  (let ((let259 (= let258 let244)))
  (let ((let260 mul_n36))
  (let ((let261 (ff.mul let260 let2)))
  (let ((let262 (ff.add let239 let245 let237 let261 let234 let233 let230 let57)))
  (let ((let263 (ff.mul let211 let262)))
  (let ((let264 (= let263 let0)))
  (let ((let265 (ff.add let212 let16)))
  (let ((let266 is_zero_inv_n40))
  (let ((let267 (ff.mul let266 let262)))
  (let ((let268 (= let267 let265)))
  (let ((let269 (ff.mul let219 let2)))
  (let ((let270 (ff.add let269 let236 let16)))
  (let ((let271 is_zero_n34))
  (let ((let272 (ff.mul let271 let270)))
  (let ((let273 (= let272 let220)))
  (let ((let274 (ff.add let241 let233 let243 let16)))
  (let ((let275 mul_n9))
  (let ((let276 (ff.mul let275 let274)))
  (let ((let277 (= let276 let209)))
  (let ((let278 (ff.add let214 let271 let2)))
  (let ((let279 (ff.add let261 let16)))
  (let ((let280 (ff.mul let279 let278)))
  (let ((let281 (= let280 let216)))
  (let ((let282 (ff.mul let237 let2)))
  (let ((let283 (ff.add let231 let246 let282 let240 let57)))
  (let ((let284 mul_n16))
  (let ((let285 (ff.mul let284 let283)))
  (let ((let286 (= let285 let260)))
  (let ((let287 mul_n32))
  (let ((let288 (ff.add let287 let246 let282 let235 let275 let240)))
  (let ((let289 (ff.mul let271 let288)))
  (let ((let290 (= let289 let230)))
  (let ((let291 (ff.mul let275 let2)))
  (let ((let292 (ff.mul let234 let57)))
  (let ((let293 (ff.mul let239 let33)))
  (let ((let294 c_n4))
  (let ((let295 (ff.mul let294 let2)))
  (let ((let296 (ff.mul let287 let2)))
  (let ((let297 (ff.add let296 let246 let243 let295 let241 let293 let282 let236 let214 let292 let233 let291 let89)))
  (let ((let298 (ff.mul let271 let297)))
  (let ((let299 (= let298 let0)))
  (let ((let300 (ff.mul let271 let2)))
  (let ((let301 (ff.add let300 let16)))
  (let ((let302 is_zero_inv_n33))
  (let ((let303 (ff.mul let302 let297)))
  (let ((let304 (= let303 let301)))
  (let ((let305 (ff.add let291 let16)))
  (let ((let306 (ff.mul let235 let33)))
  (let ((let307 (ff.add let306 let57)))
  (let ((let308 (ff.mul let307 let305)))
  (let ((let309 (= let308 let287)))
  (let ((let310 mul_n14))
  (let ((let311 (ff.mul let310 let2)))
  (let ((let312 h_n5))
  (let ((let313 is_zero_n13))
  (let ((let314 (ff.mul let313 let2)))
  (let ((let315 (ff.add let245 let237 let314 let294 let312 let311 let239 let16)))
  (let ((let316 (ff.mul let235 let315)))
  (let ((let317 (= let316 let0)))
  (let ((let318 (ff.add let236 let16)))
  (let ((let319 is_zero_inv_n30))
  (let ((let320 (ff.mul let319 let315)))
  (let ((let321 (= let320 let318)))
  (let ((let322 (ff.add let282 let16)))
  (let ((let323 (ff.add let293 let57)))
  (let ((let324 (ff.mul let323 let322)))
  (let ((let325 (= let324 let245)))
  (let ((let326 (ff.add let240 let16)))
  (let ((let327 a_n0))
  (let ((let328 (ff.mul let327 let2)))
  (let ((let329 (ff.add let328 let16)))
  (let ((let330 (ff.mul let329 let326)))
  (let ((let331 (= let330 let214)))
  (let ((let332 mul_n15))
  (let ((let333 (ff.mul let332 let2)))
  (let ((let334 (ff.add let314 let237 let333 let292 let311 let241 let131)))
  (let ((let335 (ff.mul let239 let334)))
  (let ((let336 (= let335 let0)))
  (let ((let337 is_zero_inv_n26))
  (let ((let338 (ff.mul let337 let334)))
  (let ((let339 (= let338 let326)))
  (let ((let340 b_n8))
  (let ((let341 (ff.mul let340 let33)))
  (let ((let342 (ff.mul let284 let57)))
  (let ((let343 (ff.add let328 let342 let243 let269 let241 let341 let275 let232 let140)))
  (let ((let344 (ff.mul let234 let343)))
  (let ((let345 (= let344 let0)))
  (let ((let346 (ff.mul let234 let2)))
  (let ((let347 (ff.add let346 let16)))
  (let ((let348 is_zero_inv_n24))
  (let ((let349 (ff.mul let348 let343)))
  (let ((let350 (= let349 let347)))
  (let ((let351 (ff.mul let232 let33)))
  (let ((let352 (ff.add let351 let57)))
  (let ((let353 (ff.mul let352 let241)))
  (let ((let354 (= let353 let242)))
  (let ((let355 g_n7))
  (let ((let356 (ff.add let255 let355 let294 let219)))
  (let ((let357 (ff.mul let232 let356)))
  (let ((let358 (= let357 let0)))
  (let ((let359 (ff.add let233 let16)))
  (let ((let360 is_zero_inv_n21))
  (let ((let361 (ff.mul let360 let356)))
  (let ((let362 (= let361 let359)))
  (let ((let363 mul_n19))
  (let ((let364 (ff.mul let363 let255)))
  (let ((let365 (= let364 let219)))
  (let ((let366 (ff.add let333 let16)))
  (let ((let367 (ff.mul let275 let366)))
  (let ((let368 (= let367 let363)))
  (let ((let369 d_n3))
  (let ((let370 (ff.mul let369 let2)))
  (let ((let371 (ff.mul let237 let57)))
  (let ((let372 (ff.mul let312 let2)))
  (let ((let373 (ff.mul let340 let2)))
  (let ((let374 (ff.mul let241 let33)))
  (let ((let375 (ff.mul let355 let2)))
  (let ((let376 (ff.add let328 let313 let375 let295 let374 let310 let373 let372 let371 let370 let170)))
  (let ((let377 (ff.mul let255 let376)))
  (let ((let378 (= let377 let0)))
  (let ((let379 is_zero_inv_n17))
  (let ((let380 (ff.mul let379 let376)))
  (let ((let381 (= let380 let257)))
  (let ((let382 (ff.add let372 let16)))
  (let ((let383 (ff.mul let366 let382)))
  (let ((let384 (= let383 let284)))
  (let ((let385 (ff.add let314 let16)))
  (let ((let386 (ff.mul let385 let310)))
  (let ((let387 (= let386 let332)))
  (let ((let388 (ff.add let370 let16)))
  (let ((let389 (ff.mul let355 let388)))
  (let ((let390 (= let389 let310)))
  (let ((let391 (ff.add let340 let327 let237 let294)))
  (let ((let392 (ff.mul let313 let391)))
  (let ((let393 (= let392 let0)))
  (let ((let394 is_zero_inv_n12))
  (let ((let395 (ff.mul let394 let391)))
  (let ((let396 (= let395 let385)))
  (let ((let397 mul_n10))
  (let ((let398 (ff.add let275 let397 let370)))
  (let ((let399 (ff.mul let398 let237)))
  (let ((let400 (= let399 let217)))
  (let ((let401 (ff.mul let369 let57)))
  (let ((let402 (ff.mul let401 let305)))
  (let ((let403 (= let402 let397)))
  (let ((let404 (ff.mul let369 let312)))
  (let ((let405 (= let404 let275)))
  (let ((let406 (and let405 let403 let400 let396 let393 let390 let387 let384 let381 let378 let368 let365 let362 let358 let354 let350 let345 let339 let336 let331 let325 let321 let317 let309 let304 let299 let290 let286 let281 let277 let273 let268 let264 let259 let254 let249 let229 let226)))
  (let ((let407 (= let222 let17)))
  (let ((let408 (not let407)))
  (let ((let409 (= let340 let141)))
  (let ((let410 (= let241 let38)))
  (let ((let411 (= let369 let171)))
  (let ((let412 (= let237 let34)))
  (let ((let413 (= let327 let126)))
  (let ((let414 (= let294 let93)))
  (let ((let415 (= let355 let156)))
  (let ((let416 (= let312 let111)))
  (let ((let417 (and let416 let415 let414 let413 let412 let411 let410 let409)))
  (let ((let418 (and let417 let408 let406 let208)))
  let418
)))))))))))))))))))))))))))))))))))))))))))))))))))))))))))))))))))))))))))))))))))))))))))))))))))))))))))))))))))))))))))))))))))))))))))))))))))))))))))))))))))))))))))))))))))))))))))))))))))))))))))))))))))))))))))))))))))))))))))))))))))))))))))))))))))))))))))))))))))))))))))))))))))))))))))))))))))))))))))))))))))))))))))))))))))))))))))))))))))))))))))))))))))))))))))))))))))))))))))))))))))))))))))))))))))
)
(check-sat)
